Maximize
 obj: 0 X1
Subject To
 c1:
  + 1 X70 + 1 X81 + 1 X40 + 1 X149 + 1 X135 + 1 X25 + 1 X86 + 1 X60
  + 1 X8 + 1 X150 + 1 X55 + 1 X64
  <= 1
 c2:
  + 1 X64 + 1 X140 + 1 X84 + 1 X24 + 1 X100 + 1 X40 + 1 X74
  <= 1
 c3:
  + 1 X18 + 1 X32 + 1 X100 + 1 X138 + 1 X86
  <= 1
 c4:
  + 1 X27 + 1 X14 + 1 X122 + 1 X82 + 1 X140 + 1 X84 + 1 X98 + 1 X76
  + 1 X107 + 1 X60 + 1 X117 + 1 X6 + 1 X9 + 1 X85 + 1 X35 + 1 X75
  + 1 X116
  <= 1
 c5:
  + 1 X41 + 1 X79 + 1 X20 + 1 X77 + 1 X35 + 1 X148 + 1 X30 + 1 X4
  + 1 X7 + 1 X86 + 1 X52 + 1 X33 + 1 X49 + 1 X10 + 1 X123 + 1 X83
  + 1 X146 + 1 X51
  <= 1
 c6:
  + 1 X28 + 1 X97 + 1 X112 + 1 X51 + 1 X133 + 1 X23 + 1 X125 + 1 X3
  + 1 X85 + 1 X113 + 1 X52 + 1 X64 + 1 X24 + 1 X143 + 1 X42 + 1 X82
  + 1 X104 + 1 X63
  <= 1
 c7:
  + 1 X52 + 1 X3 + 1 X141 + 1 X95 + 1 X145 + 1 X40 + 1 X125
  <= 1
 c8:
  + 1 X102 + 1 X11 + 1 X60 + 1 X56 + 1 X4 + 1 X68 + 1 X73 + 1 X9
  + 1 X57 + 1 X54 + 1 X71 + 1 X22 + 1 X26 + 1 X7 + 1 X25 + 1 X93
  + 1 X126 + 1 X34 + 1 X144 + 1 X106
  <= 1
 c9:
  + 1 X78 + 1 X48 + 1 X58 + 1 X134
  <= 1
 c10:
  + 1 X52 + 1 X36
  <= 1
 c11:
  + 1 X128 + 1 X113 + 1 X138 + 1 X88 + 1 X63 + 1 X12 + 1 X124 + 1 X47
  + 1 X104 + 1 X117 + 1 X75 + 1 X144 + 1 X61 + 1 X74
  <= 1
 c12:
  + 1 X58 + 1 X124 + 1 X31 + 1 X5 + 1 X122 + 1 X150 + 1 X109 + 1 X35
  + 1 X65 + 1 X64 + 1 X89 + 1 X34 + 1 X47 + 1 X127 + 1 X93 + 1 X78
  + 1 X46 + 1 X4
  <= 1
 c13:
  + 1 X9 + 1 X27 + 1 X103 + 1 X136 + 1 X75 + 1 X129 + 1 X56 + 1 X92
  + 1 X104 + 1 X13
  <= 1
 c14:
  + 1 X143 + 1 X140 + 1 X104 + 1 X129 + 1 X101 + 1 X63 + 1 X66 + 1 X132
  + 1 X95 + 1 X33 + 1 X13 + 1 X34 + 1 X15 + 1 X149 + 1 X78 + 1 X122
  + 1 X23 + 1 X30 + 1 X29
  <= 1
 c15:
  + 1 X6 + 1 X60 + 1 X52 + 1 X121 + 1 X26 + 1 X68 + 1 X44 + 1 X53
  + 1 X16 + 1 X127 + 1 X11 + 1 X21 + 1 X122
  <= 1
 c16:
  + 1 X32 + 1 X69 + 1 X114 + 1 X77 + 1 X4 + 1 X72 + 1 X99 + 1 X97
  + 1 X24 + 1 X146 + 1 X71 + 1 X129 + 1 X81 + 1 X87 + 1 X27 + 1 X112
  <= 1
 c17:
  + 1 X75 + 1 X69 + 1 X2 + 1 X60 + 1 X89 + 1 X87 + 1 X9 + 1 X51
  + 1 X61 + 1 X146 + 1 X84 + 1 X54
  <= 1
 c18:
  + 1 X52 + 1 X105 + 1 X25 + 1 X114 + 1 X102 + 1 X121 + 1 X67 + 1 X101
  + 1 X26 + 1 X116
  <= 1
 c19:
  + 1 X121 + 1 X96 + 1 X46 + 1 X136 + 1 X110 + 1 X3 + 1 X82 + 1 X52
  + 1 X78 + 1 X77 + 1 X68 + 1 X118 + 1 X73 + 1 X88 + 1 X74
  <= 1
 c20:
  + 1 X94 + 1 X80 + 1 X27 + 1 X115 + 1 X29 + 1 X6 + 1 X11 + 1 X65
  + 1 X116 + 1 X91 + 1 X113 + 1 X148 + 1 X104 + 1 X12 + 1 X34
  <= 1
 c21:
  + 1 X82 + 1 X137 + 1 X33 + 1 X132 + 1 X53 + 1 X2 + 1 X41 + 1 X111
  + 1 X32 + 1 X28 + 1 X135 + 1 X66 + 1 X119 + 1 X65
  <= 1
 c22:
  + 1 X93 + 1 X126 + 1 X42 + 1 X118 + 1 X137
  <= 1
 c23:
  + 1 X41 + 1 X65 + 1 X120 + 1 X126
  <= 1
 c24:
  + 1 X112 + 1 X78 + 1 X106 + 1 X127 + 1 X23 + 1 X118
  <= 1
 c25:
  + 1 X137 + 1 X55 + 1 X32 + 1 X79 + 1 X84 + 1 X8 + 1 X56 + 1 X25
  + 1 X40 + 1 X128 + 1 X138
  <= 1
 c26:
  + 1 X104 + 1 X117 + 1 X100 + 1 X113 + 1 X90 + 1 X4 + 1 X15 + 1 X17
  + 1 X81 + 1 X38 + 1 X67 + 1 X77 + 1 X133 + 1 X138 + 1 X78 + 1 X11
  + 1 X114 + 1 X19
  <= 1
 c27:
  + 1 X125 + 1 X95 + 1 X47 + 1 X6 + 1 X115 + 1 X72 + 1 X70 + 1 X62
  + 1 X11 + 1 X137 + 1 X149 + 1 X75 + 1 X99 + 1 X36 + 1 X2
  <= 1
 c28:
  + 1 X108 + 1 X52 + 1 X150 + 1 X80 + 1 X22 + 1 X32 + 1 X24 + 1 X130
  + 1 X60 + 1 X75 + 1 X62 + 1 X69 + 1 X48 + 1 X100 + 1 X82 + 1 X131
  + 1 X147 + 1 X41
  <= 1
 c29:
  + 1 X57 + 1 X47 + 1 X24 + 1 X80 + 1 X90 + 1 X99 + 1 X66 + 1 X127
  + 1 X102 + 1 X6 + 1 X92 + 1 X63 + 1 X94 + 1 X36 + 1 X2 + 1 X33
  + 1 X8 + 1 X31
  <= 1
 c30:
  + 1 X40 + 1 X8 + 1 X70 + 1 X18 + 1 X83 + 1 X119 + 1 X86 + 1 X82
  + 1 X28
  <= 1
 obj1:
  + 33 X1 + 55 X2 + 40 X3 + 89 X4 + 72 X5 + 12 X6 + 82 X7 + 34 X8
  + 32 X9 + 41 X10 + 8 X11 + 30 X12 + 57 X13 + 61 X14 + 12 X15 + 34 X16
  + 96 X17 + 99 X18 + 22 X19 + 36 X20 + 61 X21 + 76 X22 + 52 X23 + 98 X24
  + 32 X25 + 48 X26 + 80 X27 + 37 X28 + 41 X29 + 6 X30 + 5 X31 + 17 X32
  + 67 X33 + 34 X34 + 23 X35 + 84 X36 + 54 X37 + 19 X38 + 41 X39 + 15 X40
  + 14 X41 + 45 X42 + 73 X43 + 68 X44 + 8 X45 + 80 X46 + 83 X47 + 25 X48
  + 63 X49 + 88 X50 + 79 X51 + 59 X52 + 66 X53 + 34 X54 + 85 X55 + 22 X56
  + 88 X57 + 44 X58 + 54 X59 + 46 X60 + 6 X61 + 37 X62 + 59 X63 + 37 X64
  + 88 X65 + 67 X66 + 81 X67 + 93 X68 + 37 X69 + 33 X70 + 36 X71 + 8 X72
  + 8 X73 + 94 X74 + 76 X75 + 87 X76 + 60 X77 + 30 X78 + 54 X79 + 90 X80
  + 14 X81 + 64 X82 + 15 X83 + 25 X84 + 69 X85 + 37 X86 + 1 X87 + 44 X88
  + 94 X89 + 56 X90 + 60 X91 + 98 X92 + 25 X93 + 12 X94 + 20 X95 + 13 X96
  + 65 X97 + 35 X98 + 94 X99 + 17 X100 + 22 X101 + 99 X102 + 75 X103 + 32 X104
  + 58 X105 + 2 X106 + 86 X107 + 79 X108 + 22 X109 + 85 X110 + 22 X111 + 65 X112
  + 35 X113 + 22 X114 + 36 X115 + 31 X116 + 90 X117 + 60 X118 + 27 X119 + 31 X120
  + 55 X121 + 65 X122 + 14 X123 + 72 X124 + 79 X125 + 83 X126 + 39 X127 + 96 X128
  + 44 X129 + 80 X130 + 5 X131 + 96 X132 + 46 X133 + 4 X134 + 28 X135 + 31 X136
  + 13 X137 + 63 X138 + 4 X139 + 38 X140 + 5 X141 + 18 X142 + 23 X143 + 24 X144
  + 100 X145 + 28 X146 + 32 X147 + 51 X148 + 57 X149 + 89 X150
  >= 1
 obj2:
  + 5 X1 + 91 X2 + 94 X3 + 43 X4 + 86 X5 + 78 X6 + 18 X7 + 28 X8
  + 77 X9 + 98 X10 + 15 X11 + 88 X12 + 32 X13 + 93 X14 + 49 X15 + 12 X16
  + 31 X17 + 14 X18 + 66 X19 + 39 X20 + 12 X21 + 91 X22 + 23 X23 + 33 X24
  + 8 X25 + 25 X26 + 71 X27 + 53 X28 + 5 X29 + 61 X30 + 80 X31 + 23 X32
  + 62 X33 + 91 X34 + 76 X35 + 27 X36 + 19 X37 + 27 X38 + 12 X39 + 92 X40
  + 85 X41 + 80 X42 + 26 X43 + 79 X44 + 74 X45 + 74 X46 + 97 X47 + 88 X48
  + 56 X49 + 4 X50 + 66 X51 + 24 X52 + 48 X53 + 85 X54 + 28 X55 + 76 X56
  + 18 X57 + 80 X58 + 9 X59 + 38 X60 + 15 X61 + 20 X62 + 8 X63 + 57 X64
  + 54 X65 + 6 X66 + 23 X67 + 17 X68 + 89 X69 + 84 X70 + 51 X71 + 44 X72
  + 22 X73 + 56 X74 + 41 X75 + 73 X76 + 49 X77 + 58 X78 + 41 X79 + 39 X80
  + 92 X81 + 49 X82 + 82 X83 + 90 X84 + 55 X85 + 22 X86 + 57 X87 + 21 X88
  + 73 X89 + 58 X90 + 95 X91 + 89 X92 + 10 X93 + 21 X94 + 95 X95 + 34 X96
  + 75 X97 + 64 X98 + 26 X99 + 16 X100 + 8 X101 + 9 X102 + 42 X103 + 8 X104
  + 97 X105 + 18 X106 + 80 X107 + 54 X108 + 76 X109 + 27 X110 + 84 X111 + 14 X112
  + 62 X113 + 27 X114 + 88 X115 + 90 X116 + 55 X117 + 25 X118 + 40 X119 + 86 X120
  + 7 X121 + 22 X122 + 81 X123 + 99 X124 + 30 X125 + 13 X126 + 50 X127 + 45 X128
  + 63 X129 + 31 X130 + 51 X131 + 23 X132 + 40 X133 + 88 X134 + 11 X135 + 82 X136
  + 51 X137 + 15 X138 + 59 X139 + 61 X140 + 33 X141 + 97 X142 + 3 X143 + 67 X144
  + 35 X145 + 51 X146 + 39 X147 + 30 X148 + 10 X149 + 52 X150
  >= 2
 obj3:
  + 99 X1 + 58 X2 + 48 X3 + 36 X4 + 4 X5 + 91 X6 + 35 X7 + 64 X8
  + 65 X9 + 82 X10 + 90 X11 + 55 X12 + 85 X13 + 44 X14 + 2 X15 + 57 X16
  + 2 X17 + 25 X18 + 9 X19 + 58 X20 + 18 X21 + 72 X22 + 49 X23 + 45 X24
  + 67 X25 + 21 X26 + 60 X27 + 12 X28 + 57 X29 + 25 X30 + 37 X31 + 85 X32
  + 27 X33 + 62 X34 + 7 X35 + 56 X36 + 31 X37 + 82 X38 + 88 X39 + 9 X40
  + 51 X41 + 56 X42 + 48 X43 + 32 X44 + 24 X45 + 96 X46 + 16 X47 + 72 X48
  + 69 X49 + 55 X50 + 49 X51 + 71 X52 + 96 X53 + 21 X54 + 11 X55 + 72 X56
  + 3 X57 + 13 X58 + 2 X59 + 95 X60 + 3 X61 + 87 X62 + 57 X63 + 95 X64
  + 54 X65 + 74 X66 + 55 X67 + 15 X68 + 37 X69 + 91 X70 + 7 X71 + 19 X72
  + 60 X73 + 96 X74 + 53 X75 + 64 X76 + 25 X77 + 48 X78 + 82 X79 + 87 X80
  + 16 X81 + 98 X82 + 55 X83 + 90 X84 + 69 X85 + 65 X86 + 57 X87 + 60 X88
  + 92 X89 + 92 X90 + 46 X91 + 43 X92 + 54 X93 + 20 X94 + 42 X95 + 31 X96
  + 33 X97 + 65 X98 + 86 X99 + 86 X100 + 16 X101 + 83 X102 + 21 X103 + 29 X104
  + 68 X105 + 63 X106 + 31 X107 + 69 X108 + 12 X109 + 93 X110 + 57 X111 + 74 X112
  + 68 X113 + 7 X114 + 33 X115 + 40 X116 + 50 X117 + 82 X118 + 23 X119 + 38 X120
  + 96 X121 + 32 X122 + 25 X123 + 51 X124 + 8 X125 + 62 X126 + 98 X127 + 20 X128
  + 79 X129 + 11 X130 + 97 X131 + 40 X132 + 50 X133 + 66 X134 + 44 X135 + 91 X136
  + 87 X137 + 9 X138 + 12 X139 + 83 X140 + 76 X141 + 35 X142 + 9 X143 + 5 X144
  + 28 X145 + 64 X146 + 73 X147 + 85 X148 + 83 X149 + 62 X150
  >= 3
 obj4:
  + 92 X1 + 36 X2 + 4 X3 + 16 X4 + 14 X5 + 83 X6 + 41 X7 + 90 X8
  + 74 X9 + 97 X10 + 86 X11 + 63 X12 + 33 X13 + 56 X14 + 18 X15 + 12 X16
  + 20 X17 + 10 X18 + 82 X19 + 95 X20 + 15 X21 + 67 X22 + 69 X23 + 85 X24
  + 10 X25 + 16 X26 + 27 X27 + 69 X28 + 64 X29 + 22 X30 + 54 X31 + 25 X32
  + 71 X33 + 49 X34 + 20 X35 + 94 X36 + 6 X37 + 57 X38 + 37 X39 + 82 X40
  + 81 X41 + 23 X42 + 62 X43 + 6 X44 + 76 X45 + 42 X46 + 91 X47 + 6 X48
  + 24 X49 + 78 X50 + 84 X51 + 67 X52 + 38 X53 + 92 X54 + 61 X55 + 23 X56
  + 49 X57 + 54 X58 + 65 X59 + 11 X60 + 40 X61 + 96 X62 + 49 X63 + 40 X64
  + 14 X65 + 61 X66 + 54 X67 + 28 X68 + 100 X69 + 70 X70 + 34 X71 + 49 X72
  + 35 X73 + 14 X74 + 58 X75 + 84 X76 + 70 X77 + 2 X78 + 97 X79 + 27 X80
  + 73 X81 + 9 X82 + 45 X83 + 82 X84 + 20 X85 + 84 X86 + 14 X87 + 18 X88
  + 6 X89 + 62 X90 + 55 X91 + 94 X92 + 79 X93 + 54 X94 + 81 X95 + 42 X96
  + 31 X97 + 18 X98 + 45 X99 + 38 X100 + 30 X101 + 84 X102 + 21 X103 + 73 X104
  + 45 X105 + 7 X106 + 68 X107 + 56 X108 + 20 X109 + 7 X110 + 10 X111 + 1 X112
  + 9 X113 + 29 X114 + 17 X115 + 73 X116 + 64 X117 + 71 X118 + 84 X119 + 75 X120
  + 6 X121 + 38 X122 + 27 X123 + 20 X124 + 5 X125 + 74 X126 + 48 X127 + 14 X128
  + 98 X129 + 93 X130 + 68 X131 + 55 X132 + 93 X133 + 76 X134 + 52 X135 + 19 X136
  + 94 X137 + 91 X138 + 37 X139 + 27 X140 + 11 X141 + 45 X142 + 96 X143 + 88 X144
  + 84 X145 + 25 X146 + 85 X147 + 4 X148 + 98 X149 + 94 X150
  >= 4
Binary
 X1
 X2
 X3
 X4
 X5
 X6
 X7
 X8
 X9
 X10
 X11
 X12
 X13
 X14
 X15
 X16
 X17
 X18
 X19
 X20
 X21
 X22
 X23
 X24
 X25
 X26
 X27
 X28
 X29
 X30
 X31
 X32
 X33
 X34
 X35
 X36
 X37
 X38
 X39
 X40
 X41
 X42
 X43
 X44
 X45
 X46
 X47
 X48
 X49
 X50
 X51
 X52
 X53
 X54
 X55
 X56
 X57
 X58
 X59
 X60
 X61
 X62
 X63
 X64
 X65
 X66
 X67
 X68
 X69
 X70
 X71
 X72
 X73
 X74
 X75
 X76
 X77
 X78
 X79
 X80
 X81
 X82
 X83
 X84
 X85
 X86
 X87
 X88
 X89
 X90
 X91
 X92
 X93
 X94
 X95
 X96
 X97
 X98
 X99
 X100
 X101
 X102
 X103
 X104
 X105
 X106
 X107
 X108
 X109
 X110
 X111
 X112
 X113
 X114
 X115
 X116
 X117
 X118
 X119
 X120
 X121
 X122
 X123
 X124
 X125
 X126
 X127
 X128
 X129
 X130
 X131
 X132
 X133
 X134
 X135
 X136
 X137
 X138
 X139
 X140
 X141
 X142
 X143
 X144
 X145
 X146
 X147
 X148
 X149
 X150
End
